100 92 69 53 84 48 57 41 25 32 68 78 
62 55 4 98 66 14 77 81 87 
31 72 
5 15 24 79 
67 74 1 17 28 82 60 2 96 59 93 39 22 85 
63 99 19 51 7 80 
10 94 33 6 47 89 45 97 75 38 18 64 30 26 65 12 3 8 37 43 91 
50 35 58 44 76 16 13 11 52 49 95 86 
83 73 56 34 
70 20 36 54 46 
23 21 88 40 71 9 42 29 61 90 27 
